c This is QMaxSAT 2017 based on 14.07
c This is Glucose 3.0
c This is MiniSat 2.2.0
c WARNING: for repeatability, setting FPU to use double precision
c card = mrwto, comp = 0, pmodel = 0, narr = 2, mct = 29, verb = 0
cr firstCPXsol 0 0 0
c top = 167313
c |  Number of variables:    22850                                            |
c |  Number of clauses:      7564932                                          |
c |  Weight of hard clauses: 167313                                           |
c |  Number of soft clauses: 1624                                             |
c |  Number of unit soft clauses: 1624                                        |
c |  Maximum Cardinality (by unit): 334624       (334624      )               |
c last restart ## conflicts  :  8 1619 
o 3863 | cpuTime 0.665888 s
c Sum of weights = 167312
c A number of soft clauses remained = 812
c MRWTO encoding for Pseudo-Boolean Constraints
c sizeMax=3863
c No.0 Divisor=16	generated by pow1
c No.1 Divisor=16	generated by pow1
c No.2 Divisor=16	generated by pow1
c p0= 16	p1= 16	p2= 16	
c number of digits = 4
c linkingVar[0].size = 16, linkingVar[1].size = 16, linkingVar[2].size = 16, linkingVar[3].size = 1, 
c Pseudo-Boolean Constraints: 21349 variables and 274981 clauses
c Sum of weights = 167312
c A number of soft clauses remained = 812
c MRWTO encoding for Pseudo-Boolean Constraints
c sizeMax=3863
c No.0 Divisor=16	generated by pow1
c No.1 Divisor=16	generated by pow1
c No.2 Divisor=16	generated by pow1
c p0= 16	p1= 16	p2= 16	
c number of digits = 4
c linkingVar[0].size = 16, linkingVar[1].size = 16, linkingVar[2].size = 16, linkingVar[3].size = 1, 
c Pseudo-Boolean Constraints: 21349 variables and 274981 clauses
c last restart ## conflicts  :  130 3460 
o 3620 | cpuTime 0.779531 s
c last restart ## conflicts  :  116 4737 
o 3108 | cpuTime 80.8564 s
c last restart ## conflicts  :  414 3414 
o 3036 | cpuTime 88.8167 s
c last restart ## conflicts  :  204 4207 
o 2859 | cpuTime 189.418 s
c last restart ## conflicts  :  1798 2491 
o 2814 | cpuTime 555.408 s
c last restart ## conflicts  :  309 2626 
o 2334 | cpuTime 708.243 s
c last restart ## conflicts  :  1333 3109 
o 2285 | cpuTime 813.415 s
c last restart ## conflicts  :  137 2217 
o 2158 | cpuTime 825.265 s
c last restart ## conflicts  :  662 1832 
o 2141 | cpuTime 901.535 s
c last restart ## conflicts  :  376 1690 
o 2131 | cpuTime 947.558 s
c last restart ## conflicts  :  116 2197 
o 1931 | cpuTime 975.018 s
c last restart ## conflicts  :  434 1570 
o 1910 | cpuTime 1050.01 s
c last restart ## conflicts  :  446 2078 
o 1837 | cpuTime 1129.19 s
c last restart ## conflicts  :  1070 1834 
o 1701 | cpuTime 1194.11 s
c last restart ## conflicts  :  36248 2257 
o 1666 | cpuTime 1376.26 s
c last restart ## conflicts  :  849 1785 
o 1615 | cpuTime 1486.62 s
c last restart ## conflicts  :  2050 1990 
o 1579 | cpuTime 1907.46 s
c last restart ## conflicts  :  78383 1711 
o 1551 | cpuTime 2063.74 s
c last restart ## conflicts  :  58185 1766 
o 1545 | cpuTime 2819.3 s
c last restart ## conflicts  :  23787 2072 
o 1527 | cpuTime 2914.65 s
c last restart ## conflicts  :  29930 1820 
o 1495 | cpuTime 3346.59 s
s UNKNOWN
c Search is stopped by a limit (maybe time-limit)
cr positiVarArr: [ | 28@1(1->28) | 39@1(2->10) | 60@1(3->2) | 142@1(5->26) | 157@1(6->12) | 199@1(7->25) | 237@1(9->5) | 281@1(10->20) | 328@1(12->9) | 384@1(14->7) | 507@1(18->14) | 569@1(20->18) | 668@1(24->1) | 720@1(25->24) | 754@1(26->29) | 789@1(28->6) | 815@1(29->3) | 868@2(1->27) | 945@2(4->17) | 1063@2(8->19) | 1153@2(11->22) | 1210@2(13->21) | 1258@2(15->11) | 1299@2(16->23) | 1318@2(17->13) | 1378@2(19->15) | 1422@2(21->1) | 1454@2(22->4) | 1487@2(23->8) | 1611@2(27->16) | ]
cr the 1-th chain: [ 1->28->6->12->9->5->26->29->3->2->10->20->18->14->7->25->24->1 ] (#non-depot=16) {#cumul.=17}
cr the 2-th chain: [ 1->27->16->23->8->19->15->11->22->4->17->13->21->1 ] (#non-depot=12) {#cumul.=29}
c Latest Answer = 0 by 22 loops
c restarts              : 49857
c conflicts             : 13265489       (3700 /sec)
c decisions             : 99981171       (0.00 % random) (27885 /sec)
c propagations          : 16569697608    (4621285 /sec)
c conflict literals     : 5797416217     (22.19 % deleted)
c Memory used           : 1475.00 MB
c CPU time              : 3585.52 s
